; aioredis :: corpus-study/repo_src/aioredis/aioredis/connection.py :: LOCK 'ConnectionPool._lock' :: naive encoding (verdict: sat)
; Generated by snf-pipeline (encoder.py) -- run with any
; SMT-LIB2-compliant solver, e.g. `z3 aioredis__corpus-study_repo_src_aioredis_aioredis_connection.py__ConnectionPool._lock__naive.smt2`
; benchmark generated from python API
(set-info :status unknown)
(declare-fun holds_2 () Bool)
(declare-fun holds_1 () Bool)
(declare-fun holds_0 () Bool)
(assert
 (or (and holds_0 holds_1) (and holds_0 holds_2) (and holds_1 holds_2)))
(check-sat)
